56244
11, 25, 31, 1, 27, 33, 42, 45, 2, 9, 14, 12, 18, 30, 4, 47, 54, 34, 53, 17, 48, 19, 44, 38, 8, 32, 41, 13, 37, 7, 20, 50, 24, 35, 5, 51, 40, 43, 3, 28, 6, 26, 55, 49, 23, 21, 29, 22, 10, 16, 39, 46, 36, 15, 52
